(set-info :source |printed by MathSAT|)
(declare-fun |!{$(in_main#0)<CELLCOUNT_4>}| () Int)
(declare-fun |!{$(in_main#0)<CELLCOUNT_4>}.next| () Int)
(declare-fun |!{$(in_main#0)<i>}| () Int)
(declare-fun |!{$(in_main#0)<i>}.next| () Int)
(declare-fun |!{$(in_main#0)<j>}| () Int)
(declare-fun |!{$(in_main#0)<j>}.next| () Int)
(declare-fun |!{$(in_main#0)<k>}| () Int)
(declare-fun |!{$(in_main#0)<k>}.next| () Int)
(declare-fun |!{$(in_main#0)<l>}| () Int)
(declare-fun |!{$(in_main#0)<l>}.next| () Int)
(declare-fun |!{$(in_main#0)<m>}| () Int)
(declare-fun |!{$(in_main#0)<m>}.next| () Int)
(declare-fun |!{$(in_main#0)<volArray.1>}| () (Array Int Int))
(declare-fun |!{$(in_main#0)<volArray.1>}.next| () (Array Int Int))
(declare-fun |!{$(in_main#0)<$(in___VERIFIER_nondet_int#0)<h#<__VERIFIER_nondet_int.return>>>}| () Int)
(declare-fun !pc () Int)
(declare-fun !pc.next () Int)
(declare-fun |%{$(in_main#0)<j>}#1| () Int)
(declare-fun |%{$(in_main#0)<k>}#1| () Int)
(declare-fun |%{$(in_main#0)<l>}#1| () Int)
(declare-fun |%{$(in_main#0)<m>}#1| () Int)
(declare-fun |%{$(in_main#0)<volArray.1>}#1| () (Array Int Int))
(declare-fun |%{$(in_main#0)<volArray.1>}#2| () (Array Int Int))
(define-fun .def_32 () Int (! !pc :next !pc.next))
(define-fun .def_35 () Bool (! (= .def_32 2) :init true))
(define-fun .def_350 () Bool (= .def_32 39))
(define-fun .def_290 () Bool (= !pc.next 65))
(define-fun .def_353 () Bool (and .def_290 .def_350))
(define-fun .def_343 () Bool (= |!{$(in_main#0)<j>}.next| 1))
(define-fun .def_10 () Int (! |!{$(in_main#0)<i>}| :next |!{$(in_main#0)<i>}.next|))
(define-fun .def_92 () Bool (= .def_10 |!{$(in_main#0)<i>}.next|))
(define-fun .def_8 () Int (! |!{$(in_main#0)<CELLCOUNT_4>}| :next |!{$(in_main#0)<CELLCOUNT_4>}.next|))
(define-fun .def_90 () Bool (= .def_8 |!{$(in_main#0)<CELLCOUNT_4>}.next|))
(define-fun .def_105 () Bool (and .def_90 .def_92))
(define-fun .def_344 () Bool (and .def_105 .def_343))
(define-fun .def_14 () Int (! |!{$(in_main#0)<k>}| :next |!{$(in_main#0)<k>}.next|))
(define-fun .def_96 () Bool (= .def_14 |!{$(in_main#0)<k>}.next|))
(define-fun .def_345 () Bool (and .def_96 .def_344))
(define-fun .def_16 () Int (! |!{$(in_main#0)<l>}| :next |!{$(in_main#0)<l>}.next|))
(define-fun .def_98 () Bool (= .def_16 |!{$(in_main#0)<l>}.next|))
(define-fun .def_346 () Bool (and .def_98 .def_345))
(define-fun .def_18 () Int (! |!{$(in_main#0)<m>}| :next |!{$(in_main#0)<m>}.next|))
(define-fun .def_100 () Bool (= .def_18 |!{$(in_main#0)<m>}.next|))
(define-fun .def_347 () Bool (and .def_100 .def_346))
(define-fun .def_20 () (Array Int Int) (! |!{$(in_main#0)<volArray.1>}| :next |!{$(in_main#0)<volArray.1>}.next|))
(define-fun .def_102 () Bool (= .def_20 |!{$(in_main#0)<volArray.1>}.next|))
(define-fun .def_348 () Bool (and .def_102 .def_347))
(define-fun .def_297 () Bool (<= .def_10 .def_8))
(define-fun .def_321 () Bool (not .def_297))
(define-fun .def_349 () Bool (and .def_321 .def_348))
(define-fun .def_354 () Bool (and .def_349 .def_353))
(define-fun .def_71 () Bool (= !pc.next 39))
(define-fun .def_351 () Bool (and .def_71 .def_350))
(define-fun .def_299 () Int (* 4 .def_10))
(define-fun .def_317 () Int (+ .def_299 (- 1)))
(define-fun .def_337 () Int (select |%{$(in_main#0)<volArray.1>}#2| .def_317))
(define-fun .def_313 () Int (+ .def_299 (- 2)))
(define-fun .def_334 () Int (select |%{$(in_main#0)<volArray.1>}#2| .def_313))
(define-fun .def_309 () Int (+ .def_299 (- 3)))
(define-fun .def_310 () Int (select |%{$(in_main#0)<volArray.1>}#2| .def_309))
(define-fun .def_311 () (Array Int Int) (store |%{$(in_main#0)<volArray.1>}#2| .def_309 .def_310))
(define-fun .def_335 () (Array Int Int) (store .def_311 .def_313 .def_334))
(define-fun .def_338 () (Array Int Int) (store .def_335 .def_317 .def_337))
(define-fun .def_339 () Bool (= |!{$(in_main#0)<volArray.1>}.next| .def_338))
(define-fun .def_322 () Int (* (- 1) |!{$(in_main#0)<i>}.next|))
(define-fun .def_323 () Int (+ .def_10 .def_322))
(define-fun .def_324 () Bool (= .def_323 (- 1)))
(define-fun .def_325 () Bool (and .def_90 .def_324))
(define-fun .def_12 () Int (! |!{$(in_main#0)<j>}| :next |!{$(in_main#0)<j>}.next|))
(define-fun .def_94 () Bool (= .def_12 |!{$(in_main#0)<j>}.next|))
(define-fun .def_326 () Bool (and .def_94 .def_325))
(define-fun .def_327 () Bool (and .def_96 .def_326))
(define-fun .def_328 () Bool (and .def_98 .def_327))
(define-fun .def_329 () Bool (and .def_100 .def_328))
(define-fun .def_340 () Bool (and .def_329 .def_339))
(define-fun .def_301 () Int (+ .def_299 (- 4)))
(define-fun .def_302 () (Array Int Int) (store .def_20 .def_301 5))
(define-fun .def_305 () Bool (= |%{$(in_main#0)<volArray.1>}#2| .def_302))
(define-fun .def_341 () Bool (and .def_305 .def_340))
(define-fun .def_342 () Bool (and .def_297 .def_341))
(define-fun .def_352 () Bool (and .def_342 .def_351))
(define-fun .def_355 () Bool (or .def_352 .def_354))
(define-fun .def_289 () Bool (= .def_32 65))
(define-fun .def_230 () Bool (= !pc.next 91))
(define-fun .def_293 () Bool (and .def_230 .def_289))
(define-fun .def_282 () Bool (= |!{$(in_main#0)<k>}.next| 1))
(define-fun .def_106 () Bool (and .def_94 .def_105))
(define-fun .def_283 () Bool (and .def_106 .def_282))
(define-fun .def_284 () Bool (and .def_98 .def_283))
(define-fun .def_285 () Bool (and .def_100 .def_284))
(define-fun .def_286 () Bool (and .def_102 .def_285))
(define-fun .def_237 () Bool (<= .def_12 .def_8))
(define-fun .def_261 () Bool (not .def_237))
(define-fun .def_287 () Bool (and .def_261 .def_286))
(define-fun .def_294 () Bool (and .def_287 .def_293))
(define-fun .def_291 () Bool (and .def_289 .def_290))
(define-fun .def_239 () Int (* 4 .def_12))
(define-fun .def_257 () Int (+ .def_239 (- 1)))
(define-fun .def_276 () Int (select |%{$(in_main#0)<volArray.1>}#2| .def_257))
(define-fun .def_253 () Int (+ .def_239 (- 2)))
(define-fun .def_273 () Int (select |%{$(in_main#0)<volArray.1>}#2| .def_253))
(define-fun .def_249 () Int (+ .def_239 (- 4)))
(define-fun .def_250 () Int (select |%{$(in_main#0)<volArray.1>}#2| .def_249))
(define-fun .def_251 () (Array Int Int) (store |%{$(in_main#0)<volArray.1>}#2| .def_249 .def_250))
(define-fun .def_274 () (Array Int Int) (store .def_251 .def_253 .def_273))
(define-fun .def_277 () (Array Int Int) (store .def_274 .def_257 .def_276))
(define-fun .def_278 () Bool (= |!{$(in_main#0)<volArray.1>}.next| .def_277))
(define-fun .def_262 () Int (* (- 1) |!{$(in_main#0)<j>}.next|))
(define-fun .def_263 () Int (+ .def_12 .def_262))
(define-fun .def_264 () Bool (= .def_263 (- 1)))
(define-fun .def_265 () Bool (and .def_105 .def_264))
(define-fun .def_266 () Bool (and .def_96 .def_265))
(define-fun .def_267 () Bool (and .def_98 .def_266))
(define-fun .def_268 () Bool (and .def_100 .def_267))
(define-fun .def_279 () Bool (and .def_268 .def_278))
(define-fun .def_241 () Int (+ .def_239 (- 3)))
(define-fun .def_242 () (Array Int Int) (store .def_20 .def_241 7))
(define-fun .def_245 () Bool (= |%{$(in_main#0)<volArray.1>}#2| .def_242))
(define-fun .def_280 () Bool (and .def_245 .def_279))
(define-fun .def_281 () Bool (and .def_237 .def_280))
(define-fun .def_292 () Bool (and .def_281 .def_291))
(define-fun .def_295 () Bool (or .def_292 .def_294))
(define-fun .def_229 () Bool (= .def_32 91))
(define-fun .def_172 () Bool (= !pc.next 117))
(define-fun .def_233 () Bool (and .def_172 .def_229))
(define-fun .def_223 () Bool (= |!{$(in_main#0)<l>}.next| 1))
(define-fun .def_107 () Bool (and .def_96 .def_106))
(define-fun .def_224 () Bool (and .def_107 .def_223))
(define-fun .def_225 () Bool (and .def_100 .def_224))
(define-fun .def_226 () Bool (and .def_102 .def_225))
(define-fun .def_179 () Bool (<= .def_14 .def_8))
(define-fun .def_203 () Bool (not .def_179))
(define-fun .def_227 () Bool (and .def_203 .def_226))
(define-fun .def_234 () Bool (and .def_227 .def_233))
(define-fun .def_231 () Bool (and .def_229 .def_230))
(define-fun .def_180 () Int (* 4 .def_14))
(define-fun .def_199 () Int (+ .def_180 (- 1)))
(define-fun .def_217 () Int (select |%{$(in_main#0)<volArray.1>}#2| .def_199))
(define-fun .def_195 () Int (+ .def_180 (- 3)))
(define-fun .def_214 () Int (select |%{$(in_main#0)<volArray.1>}#2| .def_195))
(define-fun .def_191 () Int (+ .def_180 (- 4)))
(define-fun .def_192 () Int (select |%{$(in_main#0)<volArray.1>}#2| .def_191))
(define-fun .def_193 () (Array Int Int) (store |%{$(in_main#0)<volArray.1>}#2| .def_191 .def_192))
(define-fun .def_215 () (Array Int Int) (store .def_193 .def_195 .def_214))
(define-fun .def_218 () (Array Int Int) (store .def_215 .def_199 .def_217))
(define-fun .def_219 () Bool (= |!{$(in_main#0)<volArray.1>}.next| .def_218))
(define-fun .def_204 () Int (* (- 1) |!{$(in_main#0)<k>}.next|))
(define-fun .def_205 () Int (+ .def_14 .def_204))
(define-fun .def_206 () Bool (= .def_205 (- 1)))
(define-fun .def_207 () Bool (and .def_106 .def_206))
(define-fun .def_208 () Bool (and .def_98 .def_207))
(define-fun .def_209 () Bool (and .def_100 .def_208))
(define-fun .def_220 () Bool (and .def_209 .def_219))
(define-fun .def_182 () Int (+ .def_180 (- 2)))
(define-fun .def_183 () (Array Int Int) (store .def_20 .def_182 3))
(define-fun .def_187 () Bool (= .def_183 |%{$(in_main#0)<volArray.1>}#2|))
(define-fun .def_221 () Bool (and .def_187 .def_220))
(define-fun .def_222 () Bool (and .def_179 .def_221))
(define-fun .def_232 () Bool (and .def_222 .def_231))
(define-fun .def_235 () Bool (or .def_232 .def_234))
(define-fun .def_171 () Bool (= .def_32 117))
(define-fun .def_129 () Bool (= !pc.next 143))
(define-fun .def_175 () Bool (and .def_129 .def_171))
(define-fun .def_166 () Bool (= |!{$(in_main#0)<m>}.next| 0))
(define-fun .def_108 () Bool (and .def_98 .def_107))
(define-fun .def_167 () Bool (and .def_108 .def_166))
(define-fun .def_168 () Bool (and .def_102 .def_167))
(define-fun .def_140 () Bool (<= .def_16 .def_8))
(define-fun .def_157 () Bool (not .def_140))
(define-fun .def_169 () Bool (and .def_157 .def_168))
(define-fun .def_176 () Bool (and .def_169 .def_175))
(define-fun .def_173 () Bool (and .def_171 .def_172))
(define-fun .def_141 () Int (* 4 .def_16))
(define-fun .def_143 () Int (+ .def_141 (- 1)))
(define-fun .def_145 () (Array Int Int) (store .def_20 .def_143 0))
(define-fun .def_163 () Bool (= |!{$(in_main#0)<volArray.1>}.next| .def_145))
(define-fun .def_158 () Int (* (- 1) |!{$(in_main#0)<l>}.next|))
(define-fun .def_159 () Int (+ .def_16 .def_158))
(define-fun .def_160 () Bool (= .def_159 (- 1)))
(define-fun .def_161 () Bool (and .def_107 .def_160))
(define-fun .def_162 () Bool (and .def_100 .def_161))
(define-fun .def_164 () Bool (and .def_162 .def_163))
(define-fun .def_165 () Bool (and .def_140 .def_164))
(define-fun .def_174 () Bool (and .def_165 .def_173))
(define-fun .def_177 () Bool (or .def_174 .def_176))
(define-fun .def_133 () Bool (= !pc.next 0))
(define-fun .def_124 () Bool (= .def_32 143))
(define-fun .def_134 () Bool (and .def_124 .def_133))
(define-fun .def_76 () Int (* (- 1) .def_18))
(define-fun .def_74 () Int (* 4 .def_8))
(define-fun .def_77 () Int (+ .def_74 .def_76))
(define-fun .def_78 () Bool (<= .def_77 0))
(define-fun .def_116 () Bool (and .def_78 .def_90))
(define-fun .def_117 () Bool (and .def_92 .def_116))
(define-fun .def_118 () Bool (and .def_94 .def_117))
(define-fun .def_119 () Bool (and .def_96 .def_118))
(define-fun .def_120 () Bool (and .def_98 .def_119))
(define-fun .def_121 () Bool (and .def_100 .def_120))
(define-fun .def_122 () Bool (and .def_102 .def_121))
(define-fun .def_135 () Bool (and .def_122 .def_134))
(define-fun .def_130 () Bool (and .def_124 .def_129))
(define-fun .def_109 () Int (* (- 1) |!{$(in_main#0)<m>}.next|))
(define-fun .def_110 () Int (+ .def_18 .def_109))
(define-fun .def_111 () Bool (= .def_110 (- 1)))
(define-fun .def_112 () Bool (and .def_108 .def_111))
(define-fun .def_113 () Bool (and .def_102 .def_112))
(define-fun .def_80 () Int (select .def_20 .def_18))
(define-fun .def_82 () Bool (= .def_80 0))
(define-fun .def_81 () Bool (<= 2 .def_80))
(define-fun .def_83 () Bool (or .def_81 .def_82))
(define-fun .def_84 () Int (ite .def_83 1 0))
(define-fun .def_85 () Bool (= .def_84 0))
(define-fun .def_86 () Bool (not .def_85))
(define-fun .def_114 () Bool (and .def_86 .def_113))
(define-fun .def_79 () Bool (not .def_78))
(define-fun .def_115 () Bool (and .def_79 .def_114))
(define-fun .def_131 () Bool (and .def_115 .def_130))
(define-fun .def_126 () Bool (= !pc.next 163))
(define-fun .def_127 () Bool (and .def_124 .def_126))
(define-fun .def_91 () Bool (and .def_85 .def_90))
(define-fun .def_93 () Bool (and .def_91 .def_92))
(define-fun .def_95 () Bool (and .def_93 .def_94))
(define-fun .def_97 () Bool (and .def_95 .def_96))
(define-fun .def_99 () Bool (and .def_97 .def_98))
(define-fun .def_101 () Bool (and .def_99 .def_100))
(define-fun .def_103 () Bool (and .def_101 .def_102))
(define-fun .def_104 () Bool (and .def_79 .def_103))
(define-fun .def_128 () Bool (and .def_104 .def_127))
(define-fun .def_132 () Bool (or .def_128 .def_131))
(define-fun .def_136 () Bool (or .def_132 .def_135))
(define-fun .def_72 () Bool (and .def_35 .def_71))
(define-fun .def_67 () Bool (= |!{$(in_main#0)<volArray.1>}.next| |%{$(in_main#0)<volArray.1>}#1|))
(define-fun .def_65 () Bool (= |!{$(in_main#0)<m>}.next| |%{$(in_main#0)<m>}#1|))
(define-fun .def_63 () Bool (= |!{$(in_main#0)<l>}.next| |%{$(in_main#0)<l>}#1|))
(define-fun .def_61 () Bool (= |!{$(in_main#0)<k>}.next| |%{$(in_main#0)<k>}#1|))
(define-fun .def_59 () Bool (= |!{$(in_main#0)<j>}.next| |%{$(in_main#0)<j>}#1|))
(define-fun .def_57 () Bool (= |!{$(in_main#0)<i>}.next| 1))
(define-fun .def_56 () Bool (= |!{$(in_main#0)<CELLCOUNT_4>}.next| |!{$(in_main#0)<$(in___VERIFIER_nondet_int#0)<h#<__VERIFIER_nondet_int.return>>>}|))
(define-fun .def_58 () Bool (and .def_56 .def_57))
(define-fun .def_60 () Bool (and .def_58 .def_59))
(define-fun .def_62 () Bool (and .def_60 .def_61))
(define-fun .def_64 () Bool (and .def_62 .def_63))
(define-fun .def_66 () Bool (and .def_64 .def_65))
(define-fun .def_68 () Bool (and .def_66 .def_67))
(define-fun .def_51 () Bool (<= |!{$(in_main#0)<$(in___VERIFIER_nondet_int#0)<h#<__VERIFIER_nondet_int.return>>>}| 0))
(define-fun .def_52 () Bool (not .def_51))
(define-fun .def_53 () Int (ite .def_52 1 0))
(define-fun .def_54 () Bool (= .def_53 0))
(define-fun .def_55 () Bool (not .def_54))
(define-fun .def_69 () Bool (and .def_55 .def_68))
(define-fun .def_73 () Bool (and .def_69 .def_72))
(define-fun .def_137 () Bool (or .def_73 .def_136))
(define-fun .def_178 () Bool (or .def_137 .def_177))
(define-fun .def_236 () Bool (or .def_178 .def_235))
(define-fun .def_296 () Bool (or .def_236 .def_295))
(define-fun .def_356 () Bool (! (or .def_296 .def_355) :trans true))
(define-fun .def_138 () Bool (= .def_32 163))
(define-fun .def_357 () Bool (! (not .def_138) :invar-property 0 :invar-property-name ||))
(assert true)
